% Auto-generated by scripts/generate_dzn.py
% problem_type   = polyominoes
% instance       = polyominoes_33
% source_json    = instances_json/0_low_blowup/polyominoes_33.json
% blowup         = 0.75
% representation = DFA

mode = 0;

size = 6;
tiles = 5;
n_expressions = 5;
Q = 117;
S = 6;
q0 = [1, 1, 1, 1, 1];
F = [{23}, {74}, {88}, {23}, {2}];
weights = [6, 9, 10, 10, 10, 10, 9, 1, 8, 2, 6, 4, 7, 6, 8, 4, 9, 1, 2, 1, 10, 9, 7, 10, 2, 2, 6, 5, 1, 10, 4, 8, 6, 4, 2, 9];
d_dfa = array3d(1..5, 1..117, 1..6, [
  % k = 1
    2, 1, 1, 1, 1, 1,
    3, 39, 39, 39, 39, 39,
    5, 4, 4, 4, 4, 4,
    39, 6, 6, 6, 6, 6,
    7, 39, 39, 39, 39, 39,
    39, 8, 8, 8, 8, 8,
    9, 39, 39, 39, 39, 39,
    39, 10, 10, 10, 10, 10,
    39, 11, 11, 11, 11, 11,
    39, 12, 12, 12, 12, 12,
    39, 13, 13, 13, 13, 13,
    14, 39, 39, 39, 39, 39,
    15, 39, 39, 39, 39, 39,
    16, 39, 39, 39, 39, 39,
    17, 39, 39, 39, 39, 39,
    39, 18, 18, 18, 18, 18,
    19, 39, 39, 39, 39, 39,
    39, 20, 20, 20, 20, 20,
    21, 39, 39, 39, 39, 39,
    39, 22, 22, 22, 22, 22,
    23, 39, 39, 39, 39, 39,
    39, 24, 24, 24, 24, 24,
    39, 23, 23, 23, 23, 23,
    39, 25, 25, 25, 25, 25,
    26, 39, 39, 39, 39, 39,
    27, 39, 39, 39, 39, 39,
    39, 28, 28, 28, 28, 28,
    39, 29, 29, 29, 29, 29,
    39, 30, 30, 30, 30, 30,
    39, 31, 31, 31, 31, 31,
    39, 32, 32, 32, 32, 32,
    33, 39, 39, 39, 39, 39,
    34, 39, 39, 39, 39, 39,
    39, 35, 35, 35, 35, 35,
    39, 36, 36, 36, 36, 36,
    39, 37, 37, 37, 37, 37,
    39, 38, 38, 38, 38, 38,
    39, 19, 19, 19, 19, 19,
    39, 39, 39, 39, 39, 39,
    0, 0, 0, 0, 0, 0,
    0, 0, 0, 0, 0, 0,
    0, 0, 0, 0, 0, 0,
    0, 0, 0, 0, 0, 0,
    0, 0, 0, 0, 0, 0,
    0, 0, 0, 0, 0, 0,
    0, 0, 0, 0, 0, 0,
    0, 0, 0, 0, 0, 0,
    0, 0, 0, 0, 0, 0,
    0, 0, 0, 0, 0, 0,
    0, 0, 0, 0, 0, 0,
    0, 0, 0, 0, 0, 0,
    0, 0, 0, 0, 0, 0,
    0, 0, 0, 0, 0, 0,
    0, 0, 0, 0, 0, 0,
    0, 0, 0, 0, 0, 0,
    0, 0, 0, 0, 0, 0,
    0, 0, 0, 0, 0, 0,
    0, 0, 0, 0, 0, 0,
    0, 0, 0, 0, 0, 0,
    0, 0, 0, 0, 0, 0,
    0, 0, 0, 0, 0, 0,
    0, 0, 0, 0, 0, 0,
    0, 0, 0, 0, 0, 0,
    0, 0, 0, 0, 0, 0,
    0, 0, 0, 0, 0, 0,
    0, 0, 0, 0, 0, 0,
    0, 0, 0, 0, 0, 0,
    0, 0, 0, 0, 0, 0,
    0, 0, 0, 0, 0, 0,
    0, 0, 0, 0, 0, 0,
    0, 0, 0, 0, 0, 0,
    0, 0, 0, 0, 0, 0,
    0, 0, 0, 0, 0, 0,
    0, 0, 0, 0, 0, 0,
    0, 0, 0, 0, 0, 0,
    0, 0, 0, 0, 0, 0,
    0, 0, 0, 0, 0, 0,
    0, 0, 0, 0, 0, 0,
    0, 0, 0, 0, 0, 0,
    0, 0, 0, 0, 0, 0,
    0, 0, 0, 0, 0, 0,
    0, 0, 0, 0, 0, 0,
    0, 0, 0, 0, 0, 0,
    0, 0, 0, 0, 0, 0,
    0, 0, 0, 0, 0, 0,
    0, 0, 0, 0, 0, 0,
    0, 0, 0, 0, 0, 0,
    0, 0, 0, 0, 0, 0,
    0, 0, 0, 0, 0, 0,
    0, 0, 0, 0, 0, 0,
    0, 0, 0, 0, 0, 0,
    0, 0, 0, 0, 0, 0,
    0, 0, 0, 0, 0, 0,
    0, 0, 0, 0, 0, 0,
    0, 0, 0, 0, 0, 0,
    0, 0, 0, 0, 0, 0,
    0, 0, 0, 0, 0, 0,
    0, 0, 0, 0, 0, 0,
    0, 0, 0, 0, 0, 0,
    0, 0, 0, 0, 0, 0,
    0, 0, 0, 0, 0, 0,
    0, 0, 0, 0, 0, 0,
    0, 0, 0, 0, 0, 0,
    0, 0, 0, 0, 0, 0,
    0, 0, 0, 0, 0, 0,
    0, 0, 0, 0, 0, 0,
    0, 0, 0, 0, 0, 0,
    0, 0, 0, 0, 0, 0,
    0, 0, 0, 0, 0, 0,
    0, 0, 0, 0, 0, 0,
    0, 0, 0, 0, 0, 0,
    0, 0, 0, 0, 0, 0,
    0, 0, 0, 0, 0, 0,
    0, 0, 0, 0, 0, 0,
    0, 0, 0, 0, 0, 0,
    0, 0, 0, 0, 0, 0,
    0, 0, 0, 0, 0, 0,

  % k = 2
    1, 2, 1, 1, 1, 1,
    3, 4, 3, 3, 3, 3,
    5, 117, 5, 5, 5, 5,
    6, 7, 6, 6, 6, 6,
    8, 117, 8, 8, 8, 8,
    9, 117, 9, 9, 9, 9,
    117, 10, 117, 117, 117, 117,
    11, 117, 11, 11, 11, 11,
    12, 117, 12, 12, 12, 12,
    117, 13, 117, 117, 117, 117,
    14, 15, 14, 14, 14, 14,
    16, 117, 16, 16, 16, 16,
    117, 17, 117, 117, 117, 117,
    18, 19, 18, 18, 18, 18,
    117, 20, 117, 117, 117, 117,
    21, 117, 21, 21, 21, 21,
    22, 117, 22, 22, 22, 22,
    117, 23, 117, 117, 117, 117,
    117, 24, 117, 117, 117, 117,
    117, 25, 117, 117, 117, 117,
    117, 26, 117, 117, 117, 117,
    27, 28, 27, 27, 27, 27,
    29, 117, 29, 29, 29, 29,
    117, 30, 117, 117, 117, 117,
    117, 31, 117, 117, 117, 117,
    117, 32, 117, 117, 117, 117,
    33, 117, 33, 33, 33, 33,
    117, 34, 117, 117, 117, 117,
    35, 117, 35, 35, 35, 35,
    117, 36, 117, 117, 117, 117,
    37, 117, 37, 37, 37, 37,
    38, 117, 38, 38, 38, 38,
    117, 39, 117, 117, 117, 117,
    117, 40, 117, 117, 117, 117,
    41, 117, 41, 41, 41, 41,
    42, 117, 42, 42, 42, 42,
    36, 117, 36, 36, 36, 36,
    43, 117, 43, 43, 43, 43,
    117, 44, 117, 117, 117, 117,
    117, 45, 117, 117, 117, 117,
    46, 117, 46, 46, 46, 46,
    117, 47, 117, 117, 117, 117,
    48, 117, 48, 48, 48, 48,
    117, 49, 117, 117, 117, 117,
    50, 117, 50, 50, 50, 50,
    51, 117, 51, 51, 51, 51,
    117, 52, 117, 117, 117, 117,
    53, 117, 53, 53, 53, 53,
    117, 50, 117, 117, 117, 117,
    54, 117, 54, 54, 54, 54,
    55, 56, 55, 55, 55, 55,
    117, 57, 117, 117, 117, 117,
    58, 59, 58, 58, 58, 58,
    60, 117, 60, 60, 60, 60,
    117, 61, 117, 117, 117, 117,
    117, 62, 117, 117, 117, 117,
    117, 63, 117, 117, 117, 117,
    117, 64, 117, 117, 117, 117,
    117, 65, 117, 117, 117, 117,
    66, 117, 66, 66, 66, 66,
    117, 67, 117, 117, 117, 117,
    68, 117, 68, 68, 68, 68,
    117, 69, 117, 117, 117, 117,
    117, 70, 117, 117, 117, 117,
    117, 71, 117, 117, 117, 117,
    69, 117, 69, 69, 69, 69,
    72, 117, 72, 72, 72, 72,
    73, 117, 73, 73, 73, 73,
    117, 74, 117, 117, 117, 117,
    117, 75, 117, 117, 117, 117,
    76, 117, 76, 76, 76, 76,
    77, 117, 77, 77, 77, 77,
    78, 117, 78, 78, 78, 78,
    74, 117, 74, 74, 74, 74,
    79, 117, 79, 79, 79, 79,
    80, 117, 80, 80, 80, 80,
    81, 117, 81, 81, 81, 81,
    82, 117, 82, 82, 82, 82,
    83, 117, 83, 83, 83, 83,
    84, 117, 84, 84, 84, 84,
    85, 117, 85, 85, 85, 85,
    117, 86, 117, 117, 117, 117,
    87, 117, 87, 87, 87, 87,
    88, 117, 88, 88, 88, 88,
    89, 117, 89, 89, 89, 89,
    117, 90, 117, 117, 117, 117,
    91, 117, 91, 91, 91, 91,
    92, 117, 92, 92, 92, 92,
    117, 93, 117, 117, 117, 117,
    117, 94, 117, 117, 117, 117,
    117, 95, 117, 117, 117, 117,
    117, 96, 117, 117, 117, 117,
    117, 97, 117, 117, 117, 117,
    98, 117, 98, 98, 98, 98,
    117, 99, 117, 117, 117, 117,
    117, 100, 117, 117, 117, 117,
    117, 98, 117, 117, 117, 117,
    101, 117, 101, 101, 101, 101,
    102, 117, 102, 102, 102, 102,
    99, 117, 99, 99, 99, 99,
    103, 117, 103, 103, 103, 103,
    104, 117, 104, 104, 104, 104,
    105, 117, 105, 105, 105, 105,
    106, 117, 106, 106, 106, 106,
    107, 117, 107, 107, 107, 107,
    108, 117, 108, 108, 108, 108,
    117, 109, 117, 117, 117, 117,
    110, 117, 110, 110, 110, 110,
    117, 111, 117, 117, 117, 117,
    117, 112, 117, 117, 117, 117,
    113, 117, 113, 113, 113, 113,
    45, 117, 45, 45, 45, 45,
    114, 117, 114, 114, 114, 114,
    115, 117, 115, 115, 115, 115,
    116, 117, 116, 116, 116, 116,
    63, 117, 63, 63, 63, 63,
    117, 117, 117, 117, 117, 117,

  % k = 3
    1, 1, 2, 1, 1, 1,
    4, 4, 3, 4, 4, 4,
    6, 6, 5, 6, 6, 6,
    8, 8, 7, 8, 8, 8,
    9, 9, 103, 9, 9, 9,
    11, 11, 10, 11, 11, 11,
    103, 103, 12, 103, 103, 103,
    13, 13, 103, 13, 13, 13,
    14, 14, 103, 14, 14, 14,
    15, 15, 103, 15, 15, 15,
    16, 16, 103, 16, 16, 16,
    17, 17, 103, 17, 17, 17,
    19, 19, 18, 19, 19, 19,
    20, 20, 103, 20, 20, 20,
    21, 21, 103, 21, 21, 21,
    22, 22, 103, 22, 22, 22,
    23, 23, 103, 23, 23, 23,
    103, 103, 24, 103, 103, 103,
    25, 25, 103, 25, 25, 25,
    26, 26, 103, 26, 26, 26,
    27, 27, 103, 27, 27, 27,
    28, 28, 103, 28, 28, 28,
    29, 29, 103, 29, 29, 29,
    103, 103, 30, 103, 103, 103,
    31, 31, 103, 31, 31, 31,
    33, 33, 32, 33, 33, 33,
    103, 103, 34, 103, 103, 103,
    36, 36, 35, 36, 36, 36,
    103, 103, 37, 103, 103, 103,
    103, 103, 38, 103, 103, 103,
    103, 103, 39, 103, 103, 103,
    103, 103, 40, 103, 103, 103,
    103, 103, 41, 103, 103, 103,
    103, 103, 42, 103, 103, 103,
    43, 43, 103, 43, 43, 43,
    103, 103, 44, 103, 103, 103,
    103, 103, 45, 103, 103, 103,
    46, 46, 103, 46, 46, 46,
    103, 103, 47, 103, 103, 103,
    48, 48, 103, 48, 48, 48,
    103, 103, 49, 103, 103, 103,
    103, 103, 50, 103, 103, 103,
    51, 51, 103, 51, 51, 51,
    52, 52, 103, 52, 52, 52,
    103, 103, 53, 103, 103, 103,
    54, 54, 103, 54, 54, 54,
    103, 103, 55, 103, 103, 103,
    56, 56, 103, 56, 56, 56,
    57, 57, 103, 57, 57, 57,
    103, 103, 58, 103, 103, 103,
    59, 59, 103, 59, 59, 59,
    60, 60, 103, 60, 60, 60,
    103, 103, 61, 103, 103, 103,
    62, 62, 103, 62, 62, 62,
    103, 103, 63, 103, 103, 103,
    64, 64, 103, 64, 64, 64,
    65, 65, 103, 65, 65, 65,
    66, 66, 103, 66, 66, 66,
    67, 67, 103, 67, 67, 67,
    68, 68, 103, 68, 68, 68,
    69, 69, 103, 69, 69, 69,
    103, 103, 70, 103, 103, 103,
    71, 71, 103, 71, 71, 71,
    72, 72, 103, 72, 72, 72,
    73, 73, 103, 73, 73, 73,
    74, 74, 103, 74, 74, 74,
    75, 75, 103, 75, 75, 75,
    76, 76, 103, 76, 76, 76,
    77, 77, 103, 77, 77, 77,
    78, 78, 103, 78, 78, 78,
    79, 79, 103, 79, 79, 79,
    80, 80, 103, 80, 80, 80,
    81, 81, 103, 81, 81, 81,
    82, 82, 103, 82, 82, 82,
    83, 83, 103, 83, 83, 83,
    84, 84, 103, 84, 84, 84,
    58, 58, 103, 58, 58, 58,
    103, 103, 82, 103, 103, 103,
    85, 85, 103, 85, 85, 85,
    86, 86, 103, 86, 86, 86,
    87, 87, 103, 87, 87, 87,
    103, 103, 88, 103, 103, 103,
    103, 103, 89, 103, 103, 103,
    103, 103, 90, 103, 103, 103,
    103, 103, 91, 103, 103, 103,
    103, 103, 92, 103, 103, 103,
    103, 103, 93, 103, 103, 103,
    88, 88, 103, 88, 88, 88,
    103, 103, 94, 103, 103, 103,
    103, 103, 95, 103, 103, 103,
    103, 103, 74, 103, 103, 103,
    96, 96, 103, 96, 96, 96,
    92, 92, 103, 92, 92, 92,
    97, 97, 103, 97, 97, 97,
    94, 94, 103, 94, 94, 94,
    98, 98, 103, 98, 98, 98,
    99, 99, 103, 99, 99, 99,
    100, 100, 103, 100, 100, 100,
    101, 101, 103, 101, 101, 101,
    70, 70, 103, 70, 70, 70,
    102, 102, 103, 102, 102, 102,
    103, 103, 78, 103, 103, 103,
    103, 103, 103, 103, 103, 103,
    0, 0, 0, 0, 0, 0,
    0, 0, 0, 0, 0, 0,
    0, 0, 0, 0, 0, 0,
    0, 0, 0, 0, 0, 0,
    0, 0, 0, 0, 0, 0,
    0, 0, 0, 0, 0, 0,
    0, 0, 0, 0, 0, 0,
    0, 0, 0, 0, 0, 0,
    0, 0, 0, 0, 0, 0,
    0, 0, 0, 0, 0, 0,
    0, 0, 0, 0, 0, 0,
    0, 0, 0, 0, 0, 0,
    0, 0, 0, 0, 0, 0,
    0, 0, 0, 0, 0, 0,

  % k = 4
    1, 1, 1, 2, 1, 1,
    3, 3, 3, 4, 3, 3,
    5, 5, 5, 41, 5, 5,
    41, 41, 41, 6, 41, 41,
    7, 7, 7, 41, 7, 7,
    8, 8, 8, 41, 8, 8,
    9, 9, 9, 41, 9, 9,
    10, 10, 10, 41, 10, 10,
    11, 11, 11, 41, 11, 11,
    12, 12, 12, 41, 12, 12,
    13, 13, 13, 14, 13, 13,
    15, 15, 15, 16, 15, 15,
    41, 41, 41, 17, 41, 41,
    41, 41, 41, 18, 41, 41,
    19, 19, 19, 41, 19, 19,
    41, 41, 41, 20, 41, 41,
    41, 41, 41, 21, 41, 41,
    22, 22, 22, 41, 22, 22,
    41, 41, 41, 16, 41, 41,
    41, 41, 41, 23, 41, 41,
    24, 24, 24, 41, 24, 24,
    25, 25, 25, 41, 25, 25,
    23, 23, 23, 41, 23, 23,
    26, 26, 26, 41, 26, 26,
    27, 27, 27, 41, 27, 27,
    28, 28, 28, 41, 28, 28,
    29, 29, 29, 41, 29, 29,
    30, 30, 30, 41, 30, 30,
    31, 31, 31, 41, 31, 31,
    32, 32, 32, 41, 32, 32,
    41, 41, 41, 33, 41, 41,
    41, 41, 41, 34, 41, 41,
    41, 41, 41, 35, 41, 41,
    41, 41, 41, 36, 41, 41,
    37, 37, 37, 41, 37, 37,
    35, 35, 35, 41, 35, 35,
    38, 38, 38, 41, 38, 38,
    39, 39, 39, 41, 39, 39,
    40, 40, 40, 41, 40, 40,
    20, 20, 20, 41, 20, 20,
    41, 41, 41, 41, 41, 41,
    0, 0, 0, 0, 0, 0,
    0, 0, 0, 0, 0, 0,
    0, 0, 0, 0, 0, 0,
    0, 0, 0, 0, 0, 0,
    0, 0, 0, 0, 0, 0,
    0, 0, 0, 0, 0, 0,
    0, 0, 0, 0, 0, 0,
    0, 0, 0, 0, 0, 0,
    0, 0, 0, 0, 0, 0,
    0, 0, 0, 0, 0, 0,
    0, 0, 0, 0, 0, 0,
    0, 0, 0, 0, 0, 0,
    0, 0, 0, 0, 0, 0,
    0, 0, 0, 0, 0, 0,
    0, 0, 0, 0, 0, 0,
    0, 0, 0, 0, 0, 0,
    0, 0, 0, 0, 0, 0,
    0, 0, 0, 0, 0, 0,
    0, 0, 0, 0, 0, 0,
    0, 0, 0, 0, 0, 0,
    0, 0, 0, 0, 0, 0,
    0, 0, 0, 0, 0, 0,
    0, 0, 0, 0, 0, 0,
    0, 0, 0, 0, 0, 0,
    0, 0, 0, 0, 0, 0,
    0, 0, 0, 0, 0, 0,
    0, 0, 0, 0, 0, 0,
    0, 0, 0, 0, 0, 0,
    0, 0, 0, 0, 0, 0,
    0, 0, 0, 0, 0, 0,
    0, 0, 0, 0, 0, 0,
    0, 0, 0, 0, 0, 0,
    0, 0, 0, 0, 0, 0,
    0, 0, 0, 0, 0, 0,
    0, 0, 0, 0, 0, 0,
    0, 0, 0, 0, 0, 0,
    0, 0, 0, 0, 0, 0,
    0, 0, 0, 0, 0, 0,
    0, 0, 0, 0, 0, 0,
    0, 0, 0, 0, 0, 0,
    0, 0, 0, 0, 0, 0,
    0, 0, 0, 0, 0, 0,
    0, 0, 0, 0, 0, 0,
    0, 0, 0, 0, 0, 0,
    0, 0, 0, 0, 0, 0,
    0, 0, 0, 0, 0, 0,
    0, 0, 0, 0, 0, 0,
    0, 0, 0, 0, 0, 0,
    0, 0, 0, 0, 0, 0,
    0, 0, 0, 0, 0, 0,
    0, 0, 0, 0, 0, 0,
    0, 0, 0, 0, 0, 0,
    0, 0, 0, 0, 0, 0,
    0, 0, 0, 0, 0, 0,
    0, 0, 0, 0, 0, 0,
    0, 0, 0, 0, 0, 0,
    0, 0, 0, 0, 0, 0,
    0, 0, 0, 0, 0, 0,
    0, 0, 0, 0, 0, 0,
    0, 0, 0, 0, 0, 0,
    0, 0, 0, 0, 0, 0,
    0, 0, 0, 0, 0, 0,
    0, 0, 0, 0, 0, 0,
    0, 0, 0, 0, 0, 0,
    0, 0, 0, 0, 0, 0,
    0, 0, 0, 0, 0, 0,
    0, 0, 0, 0, 0, 0,
    0, 0, 0, 0, 0, 0,
    0, 0, 0, 0, 0, 0,
    0, 0, 0, 0, 0, 0,
    0, 0, 0, 0, 0, 0,
    0, 0, 0, 0, 0, 0,
    0, 0, 0, 0, 0, 0,
    0, 0, 0, 0, 0, 0,
    0, 0, 0, 0, 0, 0,
    0, 0, 0, 0, 0, 0,

  % k = 5
    1, 1, 1, 1, 2, 1,
    2, 2, 2, 2, 3, 2,
    3, 3, 3, 3, 3, 3,
    0, 0, 0, 0, 0, 0,
    0, 0, 0, 0, 0, 0,
    0, 0, 0, 0, 0, 0,
    0, 0, 0, 0, 0, 0,
    0, 0, 0, 0, 0, 0,
    0, 0, 0, 0, 0, 0,
    0, 0, 0, 0, 0, 0,
    0, 0, 0, 0, 0, 0,
    0, 0, 0, 0, 0, 0,
    0, 0, 0, 0, 0, 0,
    0, 0, 0, 0, 0, 0,
    0, 0, 0, 0, 0, 0,
    0, 0, 0, 0, 0, 0,
    0, 0, 0, 0, 0, 0,
    0, 0, 0, 0, 0, 0,
    0, 0, 0, 0, 0, 0,
    0, 0, 0, 0, 0, 0,
    0, 0, 0, 0, 0, 0,
    0, 0, 0, 0, 0, 0,
    0, 0, 0, 0, 0, 0,
    0, 0, 0, 0, 0, 0,
    0, 0, 0, 0, 0, 0,
    0, 0, 0, 0, 0, 0,
    0, 0, 0, 0, 0, 0,
    0, 0, 0, 0, 0, 0,
    0, 0, 0, 0, 0, 0,
    0, 0, 0, 0, 0, 0,
    0, 0, 0, 0, 0, 0,
    0, 0, 0, 0, 0, 0,
    0, 0, 0, 0, 0, 0,
    0, 0, 0, 0, 0, 0,
    0, 0, 0, 0, 0, 0,
    0, 0, 0, 0, 0, 0,
    0, 0, 0, 0, 0, 0,
    0, 0, 0, 0, 0, 0,
    0, 0, 0, 0, 0, 0,
    0, 0, 0, 0, 0, 0,
    0, 0, 0, 0, 0, 0,
    0, 0, 0, 0, 0, 0,
    0, 0, 0, 0, 0, 0,
    0, 0, 0, 0, 0, 0,
    0, 0, 0, 0, 0, 0,
    0, 0, 0, 0, 0, 0,
    0, 0, 0, 0, 0, 0,
    0, 0, 0, 0, 0, 0,
    0, 0, 0, 0, 0, 0,
    0, 0, 0, 0, 0, 0,
    0, 0, 0, 0, 0, 0,
    0, 0, 0, 0, 0, 0,
    0, 0, 0, 0, 0, 0,
    0, 0, 0, 0, 0, 0,
    0, 0, 0, 0, 0, 0,
    0, 0, 0, 0, 0, 0,
    0, 0, 0, 0, 0, 0,
    0, 0, 0, 0, 0, 0,
    0, 0, 0, 0, 0, 0,
    0, 0, 0, 0, 0, 0,
    0, 0, 0, 0, 0, 0,
    0, 0, 0, 0, 0, 0,
    0, 0, 0, 0, 0, 0,
    0, 0, 0, 0, 0, 0,
    0, 0, 0, 0, 0, 0,
    0, 0, 0, 0, 0, 0,
    0, 0, 0, 0, 0, 0,
    0, 0, 0, 0, 0, 0,
    0, 0, 0, 0, 0, 0,
    0, 0, 0, 0, 0, 0,
    0, 0, 0, 0, 0, 0,
    0, 0, 0, 0, 0, 0,
    0, 0, 0, 0, 0, 0,
    0, 0, 0, 0, 0, 0,
    0, 0, 0, 0, 0, 0,
    0, 0, 0, 0, 0, 0,
    0, 0, 0, 0, 0, 0,
    0, 0, 0, 0, 0, 0,
    0, 0, 0, 0, 0, 0,
    0, 0, 0, 0, 0, 0,
    0, 0, 0, 0, 0, 0,
    0, 0, 0, 0, 0, 0,
    0, 0, 0, 0, 0, 0,
    0, 0, 0, 0, 0, 0,
    0, 0, 0, 0, 0, 0,
    0, 0, 0, 0, 0, 0,
    0, 0, 0, 0, 0, 0,
    0, 0, 0, 0, 0, 0,
    0, 0, 0, 0, 0, 0,
    0, 0, 0, 0, 0, 0,
    0, 0, 0, 0, 0, 0,
    0, 0, 0, 0, 0, 0,
    0, 0, 0, 0, 0, 0,
    0, 0, 0, 0, 0, 0,
    0, 0, 0, 0, 0, 0,
    0, 0, 0, 0, 0, 0,
    0, 0, 0, 0, 0, 0,
    0, 0, 0, 0, 0, 0,
    0, 0, 0, 0, 0, 0,
    0, 0, 0, 0, 0, 0,
    0, 0, 0, 0, 0, 0,
    0, 0, 0, 0, 0, 0,
    0, 0, 0, 0, 0, 0,
    0, 0, 0, 0, 0, 0,
    0, 0, 0, 0, 0, 0,
    0, 0, 0, 0, 0, 0,
    0, 0, 0, 0, 0, 0,
    0, 0, 0, 0, 0, 0,
    0, 0, 0, 0, 0, 0,
    0, 0, 0, 0, 0, 0,
    0, 0, 0, 0, 0, 0,
    0, 0, 0, 0, 0, 0,
    0, 0, 0, 0, 0, 0,
    0, 0, 0, 0, 0, 0,
    0, 0, 0, 0, 0, 0,
    0, 0, 0, 0, 0, 0,
    0, 0, 0, 0, 0, 0
]);
d_nfa = array3d(1..5, 1..117, 1..6, [
  % k = 1
    {}, {}, {}, {}, {}, {},
    {}, {}, {}, {}, {}, {},
    {}, {}, {}, {}, {}, {},
    {}, {}, {}, {}, {}, {},
    {}, {}, {}, {}, {}, {},
    {}, {}, {}, {}, {}, {},
    {}, {}, {}, {}, {}, {},
    {}, {}, {}, {}, {}, {},
    {}, {}, {}, {}, {}, {},
    {}, {}, {}, {}, {}, {},
    {}, {}, {}, {}, {}, {},
    {}, {}, {}, {}, {}, {},
    {}, {}, {}, {}, {}, {},
    {}, {}, {}, {}, {}, {},
    {}, {}, {}, {}, {}, {},
    {}, {}, {}, {}, {}, {},
    {}, {}, {}, {}, {}, {},
    {}, {}, {}, {}, {}, {},
    {}, {}, {}, {}, {}, {},
    {}, {}, {}, {}, {}, {},
    {}, {}, {}, {}, {}, {},
    {}, {}, {}, {}, {}, {},
    {}, {}, {}, {}, {}, {},
    {}, {}, {}, {}, {}, {},
    {}, {}, {}, {}, {}, {},
    {}, {}, {}, {}, {}, {},
    {}, {}, {}, {}, {}, {},
    {}, {}, {}, {}, {}, {},
    {}, {}, {}, {}, {}, {},
    {}, {}, {}, {}, {}, {},
    {}, {}, {}, {}, {}, {},
    {}, {}, {}, {}, {}, {},
    {}, {}, {}, {}, {}, {},
    {}, {}, {}, {}, {}, {},
    {}, {}, {}, {}, {}, {},
    {}, {}, {}, {}, {}, {},
    {}, {}, {}, {}, {}, {},
    {}, {}, {}, {}, {}, {},
    {}, {}, {}, {}, {}, {},
    {}, {}, {}, {}, {}, {},
    {}, {}, {}, {}, {}, {},
    {}, {}, {}, {}, {}, {},
    {}, {}, {}, {}, {}, {},
    {}, {}, {}, {}, {}, {},
    {}, {}, {}, {}, {}, {},
    {}, {}, {}, {}, {}, {},
    {}, {}, {}, {}, {}, {},
    {}, {}, {}, {}, {}, {},
    {}, {}, {}, {}, {}, {},
    {}, {}, {}, {}, {}, {},
    {}, {}, {}, {}, {}, {},
    {}, {}, {}, {}, {}, {},
    {}, {}, {}, {}, {}, {},
    {}, {}, {}, {}, {}, {},
    {}, {}, {}, {}, {}, {},
    {}, {}, {}, {}, {}, {},
    {}, {}, {}, {}, {}, {},
    {}, {}, {}, {}, {}, {},
    {}, {}, {}, {}, {}, {},
    {}, {}, {}, {}, {}, {},
    {}, {}, {}, {}, {}, {},
    {}, {}, {}, {}, {}, {},
    {}, {}, {}, {}, {}, {},
    {}, {}, {}, {}, {}, {},
    {}, {}, {}, {}, {}, {},
    {}, {}, {}, {}, {}, {},
    {}, {}, {}, {}, {}, {},
    {}, {}, {}, {}, {}, {},
    {}, {}, {}, {}, {}, {},
    {}, {}, {}, {}, {}, {},
    {}, {}, {}, {}, {}, {},
    {}, {}, {}, {}, {}, {},
    {}, {}, {}, {}, {}, {},
    {}, {}, {}, {}, {}, {},
    {}, {}, {}, {}, {}, {},
    {}, {}, {}, {}, {}, {},
    {}, {}, {}, {}, {}, {},
    {}, {}, {}, {}, {}, {},
    {}, {}, {}, {}, {}, {},
    {}, {}, {}, {}, {}, {},
    {}, {}, {}, {}, {}, {},
    {}, {}, {}, {}, {}, {},
    {}, {}, {}, {}, {}, {},
    {}, {}, {}, {}, {}, {},
    {}, {}, {}, {}, {}, {},
    {}, {}, {}, {}, {}, {},
    {}, {}, {}, {}, {}, {},
    {}, {}, {}, {}, {}, {},
    {}, {}, {}, {}, {}, {},
    {}, {}, {}, {}, {}, {},
    {}, {}, {}, {}, {}, {},
    {}, {}, {}, {}, {}, {},
    {}, {}, {}, {}, {}, {},
    {}, {}, {}, {}, {}, {},
    {}, {}, {}, {}, {}, {},
    {}, {}, {}, {}, {}, {},
    {}, {}, {}, {}, {}, {},
    {}, {}, {}, {}, {}, {},
    {}, {}, {}, {}, {}, {},
    {}, {}, {}, {}, {}, {},
    {}, {}, {}, {}, {}, {},
    {}, {}, {}, {}, {}, {},
    {}, {}, {}, {}, {}, {},
    {}, {}, {}, {}, {}, {},
    {}, {}, {}, {}, {}, {},
    {}, {}, {}, {}, {}, {},
    {}, {}, {}, {}, {}, {},
    {}, {}, {}, {}, {}, {},
    {}, {}, {}, {}, {}, {},
    {}, {}, {}, {}, {}, {},
    {}, {}, {}, {}, {}, {},
    {}, {}, {}, {}, {}, {},
    {}, {}, {}, {}, {}, {},
    {}, {}, {}, {}, {}, {},
    {}, {}, {}, {}, {}, {},
    {}, {}, {}, {}, {}, {},
    {}, {}, {}, {}, {}, {},

  % k = 2
    {}, {}, {}, {}, {}, {},
    {}, {}, {}, {}, {}, {},
    {}, {}, {}, {}, {}, {},
    {}, {}, {}, {}, {}, {},
    {}, {}, {}, {}, {}, {},
    {}, {}, {}, {}, {}, {},
    {}, {}, {}, {}, {}, {},
    {}, {}, {}, {}, {}, {},
    {}, {}, {}, {}, {}, {},
    {}, {}, {}, {}, {}, {},
    {}, {}, {}, {}, {}, {},
    {}, {}, {}, {}, {}, {},
    {}, {}, {}, {}, {}, {},
    {}, {}, {}, {}, {}, {},
    {}, {}, {}, {}, {}, {},
    {}, {}, {}, {}, {}, {},
    {}, {}, {}, {}, {}, {},
    {}, {}, {}, {}, {}, {},
    {}, {}, {}, {}, {}, {},
    {}, {}, {}, {}, {}, {},
    {}, {}, {}, {}, {}, {},
    {}, {}, {}, {}, {}, {},
    {}, {}, {}, {}, {}, {},
    {}, {}, {}, {}, {}, {},
    {}, {}, {}, {}, {}, {},
    {}, {}, {}, {}, {}, {},
    {}, {}, {}, {}, {}, {},
    {}, {}, {}, {}, {}, {},
    {}, {}, {}, {}, {}, {},
    {}, {}, {}, {}, {}, {},
    {}, {}, {}, {}, {}, {},
    {}, {}, {}, {}, {}, {},
    {}, {}, {}, {}, {}, {},
    {}, {}, {}, {}, {}, {},
    {}, {}, {}, {}, {}, {},
    {}, {}, {}, {}, {}, {},
    {}, {}, {}, {}, {}, {},
    {}, {}, {}, {}, {}, {},
    {}, {}, {}, {}, {}, {},
    {}, {}, {}, {}, {}, {},
    {}, {}, {}, {}, {}, {},
    {}, {}, {}, {}, {}, {},
    {}, {}, {}, {}, {}, {},
    {}, {}, {}, {}, {}, {},
    {}, {}, {}, {}, {}, {},
    {}, {}, {}, {}, {}, {},
    {}, {}, {}, {}, {}, {},
    {}, {}, {}, {}, {}, {},
    {}, {}, {}, {}, {}, {},
    {}, {}, {}, {}, {}, {},
    {}, {}, {}, {}, {}, {},
    {}, {}, {}, {}, {}, {},
    {}, {}, {}, {}, {}, {},
    {}, {}, {}, {}, {}, {},
    {}, {}, {}, {}, {}, {},
    {}, {}, {}, {}, {}, {},
    {}, {}, {}, {}, {}, {},
    {}, {}, {}, {}, {}, {},
    {}, {}, {}, {}, {}, {},
    {}, {}, {}, {}, {}, {},
    {}, {}, {}, {}, {}, {},
    {}, {}, {}, {}, {}, {},
    {}, {}, {}, {}, {}, {},
    {}, {}, {}, {}, {}, {},
    {}, {}, {}, {}, {}, {},
    {}, {}, {}, {}, {}, {},
    {}, {}, {}, {}, {}, {},
    {}, {}, {}, {}, {}, {},
    {}, {}, {}, {}, {}, {},
    {}, {}, {}, {}, {}, {},
    {}, {}, {}, {}, {}, {},
    {}, {}, {}, {}, {}, {},
    {}, {}, {}, {}, {}, {},
    {}, {}, {}, {}, {}, {},
    {}, {}, {}, {}, {}, {},
    {}, {}, {}, {}, {}, {},
    {}, {}, {}, {}, {}, {},
    {}, {}, {}, {}, {}, {},
    {}, {}, {}, {}, {}, {},
    {}, {}, {}, {}, {}, {},
    {}, {}, {}, {}, {}, {},
    {}, {}, {}, {}, {}, {},
    {}, {}, {}, {}, {}, {},
    {}, {}, {}, {}, {}, {},
    {}, {}, {}, {}, {}, {},
    {}, {}, {}, {}, {}, {},
    {}, {}, {}, {}, {}, {},
    {}, {}, {}, {}, {}, {},
    {}, {}, {}, {}, {}, {},
    {}, {}, {}, {}, {}, {},
    {}, {}, {}, {}, {}, {},
    {}, {}, {}, {}, {}, {},
    {}, {}, {}, {}, {}, {},
    {}, {}, {}, {}, {}, {},
    {}, {}, {}, {}, {}, {},
    {}, {}, {}, {}, {}, {},
    {}, {}, {}, {}, {}, {},
    {}, {}, {}, {}, {}, {},
    {}, {}, {}, {}, {}, {},
    {}, {}, {}, {}, {}, {},
    {}, {}, {}, {}, {}, {},
    {}, {}, {}, {}, {}, {},
    {}, {}, {}, {}, {}, {},
    {}, {}, {}, {}, {}, {},
    {}, {}, {}, {}, {}, {},
    {}, {}, {}, {}, {}, {},
    {}, {}, {}, {}, {}, {},
    {}, {}, {}, {}, {}, {},
    {}, {}, {}, {}, {}, {},
    {}, {}, {}, {}, {}, {},
    {}, {}, {}, {}, {}, {},
    {}, {}, {}, {}, {}, {},
    {}, {}, {}, {}, {}, {},
    {}, {}, {}, {}, {}, {},
    {}, {}, {}, {}, {}, {},
    {}, {}, {}, {}, {}, {},
    {}, {}, {}, {}, {}, {},

  % k = 3
    {}, {}, {}, {}, {}, {},
    {}, {}, {}, {}, {}, {},
    {}, {}, {}, {}, {}, {},
    {}, {}, {}, {}, {}, {},
    {}, {}, {}, {}, {}, {},
    {}, {}, {}, {}, {}, {},
    {}, {}, {}, {}, {}, {},
    {}, {}, {}, {}, {}, {},
    {}, {}, {}, {}, {}, {},
    {}, {}, {}, {}, {}, {},
    {}, {}, {}, {}, {}, {},
    {}, {}, {}, {}, {}, {},
    {}, {}, {}, {}, {}, {},
    {}, {}, {}, {}, {}, {},
    {}, {}, {}, {}, {}, {},
    {}, {}, {}, {}, {}, {},
    {}, {}, {}, {}, {}, {},
    {}, {}, {}, {}, {}, {},
    {}, {}, {}, {}, {}, {},
    {}, {}, {}, {}, {}, {},
    {}, {}, {}, {}, {}, {},
    {}, {}, {}, {}, {}, {},
    {}, {}, {}, {}, {}, {},
    {}, {}, {}, {}, {}, {},
    {}, {}, {}, {}, {}, {},
    {}, {}, {}, {}, {}, {},
    {}, {}, {}, {}, {}, {},
    {}, {}, {}, {}, {}, {},
    {}, {}, {}, {}, {}, {},
    {}, {}, {}, {}, {}, {},
    {}, {}, {}, {}, {}, {},
    {}, {}, {}, {}, {}, {},
    {}, {}, {}, {}, {}, {},
    {}, {}, {}, {}, {}, {},
    {}, {}, {}, {}, {}, {},
    {}, {}, {}, {}, {}, {},
    {}, {}, {}, {}, {}, {},
    {}, {}, {}, {}, {}, {},
    {}, {}, {}, {}, {}, {},
    {}, {}, {}, {}, {}, {},
    {}, {}, {}, {}, {}, {},
    {}, {}, {}, {}, {}, {},
    {}, {}, {}, {}, {}, {},
    {}, {}, {}, {}, {}, {},
    {}, {}, {}, {}, {}, {},
    {}, {}, {}, {}, {}, {},
    {}, {}, {}, {}, {}, {},
    {}, {}, {}, {}, {}, {},
    {}, {}, {}, {}, {}, {},
    {}, {}, {}, {}, {}, {},
    {}, {}, {}, {}, {}, {},
    {}, {}, {}, {}, {}, {},
    {}, {}, {}, {}, {}, {},
    {}, {}, {}, {}, {}, {},
    {}, {}, {}, {}, {}, {},
    {}, {}, {}, {}, {}, {},
    {}, {}, {}, {}, {}, {},
    {}, {}, {}, {}, {}, {},
    {}, {}, {}, {}, {}, {},
    {}, {}, {}, {}, {}, {},
    {}, {}, {}, {}, {}, {},
    {}, {}, {}, {}, {}, {},
    {}, {}, {}, {}, {}, {},
    {}, {}, {}, {}, {}, {},
    {}, {}, {}, {}, {}, {},
    {}, {}, {}, {}, {}, {},
    {}, {}, {}, {}, {}, {},
    {}, {}, {}, {}, {}, {},
    {}, {}, {}, {}, {}, {},
    {}, {}, {}, {}, {}, {},
    {}, {}, {}, {}, {}, {},
    {}, {}, {}, {}, {}, {},
    {}, {}, {}, {}, {}, {},
    {}, {}, {}, {}, {}, {},
    {}, {}, {}, {}, {}, {},
    {}, {}, {}, {}, {}, {},
    {}, {}, {}, {}, {}, {},
    {}, {}, {}, {}, {}, {},
    {}, {}, {}, {}, {}, {},
    {}, {}, {}, {}, {}, {},
    {}, {}, {}, {}, {}, {},
    {}, {}, {}, {}, {}, {},
    {}, {}, {}, {}, {}, {},
    {}, {}, {}, {}, {}, {},
    {}, {}, {}, {}, {}, {},
    {}, {}, {}, {}, {}, {},
    {}, {}, {}, {}, {}, {},
    {}, {}, {}, {}, {}, {},
    {}, {}, {}, {}, {}, {},
    {}, {}, {}, {}, {}, {},
    {}, {}, {}, {}, {}, {},
    {}, {}, {}, {}, {}, {},
    {}, {}, {}, {}, {}, {},
    {}, {}, {}, {}, {}, {},
    {}, {}, {}, {}, {}, {},
    {}, {}, {}, {}, {}, {},
    {}, {}, {}, {}, {}, {},
    {}, {}, {}, {}, {}, {},
    {}, {}, {}, {}, {}, {},
    {}, {}, {}, {}, {}, {},
    {}, {}, {}, {}, {}, {},
    {}, {}, {}, {}, {}, {},
    {}, {}, {}, {}, {}, {},
    {}, {}, {}, {}, {}, {},
    {}, {}, {}, {}, {}, {},
    {}, {}, {}, {}, {}, {},
    {}, {}, {}, {}, {}, {},
    {}, {}, {}, {}, {}, {},
    {}, {}, {}, {}, {}, {},
    {}, {}, {}, {}, {}, {},
    {}, {}, {}, {}, {}, {},
    {}, {}, {}, {}, {}, {},
    {}, {}, {}, {}, {}, {},
    {}, {}, {}, {}, {}, {},
    {}, {}, {}, {}, {}, {},
    {}, {}, {}, {}, {}, {},
    {}, {}, {}, {}, {}, {},

  % k = 4
    {}, {}, {}, {}, {}, {},
    {}, {}, {}, {}, {}, {},
    {}, {}, {}, {}, {}, {},
    {}, {}, {}, {}, {}, {},
    {}, {}, {}, {}, {}, {},
    {}, {}, {}, {}, {}, {},
    {}, {}, {}, {}, {}, {},
    {}, {}, {}, {}, {}, {},
    {}, {}, {}, {}, {}, {},
    {}, {}, {}, {}, {}, {},
    {}, {}, {}, {}, {}, {},
    {}, {}, {}, {}, {}, {},
    {}, {}, {}, {}, {}, {},
    {}, {}, {}, {}, {}, {},
    {}, {}, {}, {}, {}, {},
    {}, {}, {}, {}, {}, {},
    {}, {}, {}, {}, {}, {},
    {}, {}, {}, {}, {}, {},
    {}, {}, {}, {}, {}, {},
    {}, {}, {}, {}, {}, {},
    {}, {}, {}, {}, {}, {},
    {}, {}, {}, {}, {}, {},
    {}, {}, {}, {}, {}, {},
    {}, {}, {}, {}, {}, {},
    {}, {}, {}, {}, {}, {},
    {}, {}, {}, {}, {}, {},
    {}, {}, {}, {}, {}, {},
    {}, {}, {}, {}, {}, {},
    {}, {}, {}, {}, {}, {},
    {}, {}, {}, {}, {}, {},
    {}, {}, {}, {}, {}, {},
    {}, {}, {}, {}, {}, {},
    {}, {}, {}, {}, {}, {},
    {}, {}, {}, {}, {}, {},
    {}, {}, {}, {}, {}, {},
    {}, {}, {}, {}, {}, {},
    {}, {}, {}, {}, {}, {},
    {}, {}, {}, {}, {}, {},
    {}, {}, {}, {}, {}, {},
    {}, {}, {}, {}, {}, {},
    {}, {}, {}, {}, {}, {},
    {}, {}, {}, {}, {}, {},
    {}, {}, {}, {}, {}, {},
    {}, {}, {}, {}, {}, {},
    {}, {}, {}, {}, {}, {},
    {}, {}, {}, {}, {}, {},
    {}, {}, {}, {}, {}, {},
    {}, {}, {}, {}, {}, {},
    {}, {}, {}, {}, {}, {},
    {}, {}, {}, {}, {}, {},
    {}, {}, {}, {}, {}, {},
    {}, {}, {}, {}, {}, {},
    {}, {}, {}, {}, {}, {},
    {}, {}, {}, {}, {}, {},
    {}, {}, {}, {}, {}, {},
    {}, {}, {}, {}, {}, {},
    {}, {}, {}, {}, {}, {},
    {}, {}, {}, {}, {}, {},
    {}, {}, {}, {}, {}, {},
    {}, {}, {}, {}, {}, {},
    {}, {}, {}, {}, {}, {},
    {}, {}, {}, {}, {}, {},
    {}, {}, {}, {}, {}, {},
    {}, {}, {}, {}, {}, {},
    {}, {}, {}, {}, {}, {},
    {}, {}, {}, {}, {}, {},
    {}, {}, {}, {}, {}, {},
    {}, {}, {}, {}, {}, {},
    {}, {}, {}, {}, {}, {},
    {}, {}, {}, {}, {}, {},
    {}, {}, {}, {}, {}, {},
    {}, {}, {}, {}, {}, {},
    {}, {}, {}, {}, {}, {},
    {}, {}, {}, {}, {}, {},
    {}, {}, {}, {}, {}, {},
    {}, {}, {}, {}, {}, {},
    {}, {}, {}, {}, {}, {},
    {}, {}, {}, {}, {}, {},
    {}, {}, {}, {}, {}, {},
    {}, {}, {}, {}, {}, {},
    {}, {}, {}, {}, {}, {},
    {}, {}, {}, {}, {}, {},
    {}, {}, {}, {}, {}, {},
    {}, {}, {}, {}, {}, {},
    {}, {}, {}, {}, {}, {},
    {}, {}, {}, {}, {}, {},
    {}, {}, {}, {}, {}, {},
    {}, {}, {}, {}, {}, {},
    {}, {}, {}, {}, {}, {},
    {}, {}, {}, {}, {}, {},
    {}, {}, {}, {}, {}, {},
    {}, {}, {}, {}, {}, {},
    {}, {}, {}, {}, {}, {},
    {}, {}, {}, {}, {}, {},
    {}, {}, {}, {}, {}, {},
    {}, {}, {}, {}, {}, {},
    {}, {}, {}, {}, {}, {},
    {}, {}, {}, {}, {}, {},
    {}, {}, {}, {}, {}, {},
    {}, {}, {}, {}, {}, {},
    {}, {}, {}, {}, {}, {},
    {}, {}, {}, {}, {}, {},
    {}, {}, {}, {}, {}, {},
    {}, {}, {}, {}, {}, {},
    {}, {}, {}, {}, {}, {},
    {}, {}, {}, {}, {}, {},
    {}, {}, {}, {}, {}, {},
    {}, {}, {}, {}, {}, {},
    {}, {}, {}, {}, {}, {},
    {}, {}, {}, {}, {}, {},
    {}, {}, {}, {}, {}, {},
    {}, {}, {}, {}, {}, {},
    {}, {}, {}, {}, {}, {},
    {}, {}, {}, {}, {}, {},
    {}, {}, {}, {}, {}, {},
    {}, {}, {}, {}, {}, {},
    {}, {}, {}, {}, {}, {},

  % k = 5
    {}, {}, {}, {}, {}, {},
    {}, {}, {}, {}, {}, {},
    {}, {}, {}, {}, {}, {},
    {}, {}, {}, {}, {}, {},
    {}, {}, {}, {}, {}, {},
    {}, {}, {}, {}, {}, {},
    {}, {}, {}, {}, {}, {},
    {}, {}, {}, {}, {}, {},
    {}, {}, {}, {}, {}, {},
    {}, {}, {}, {}, {}, {},
    {}, {}, {}, {}, {}, {},
    {}, {}, {}, {}, {}, {},
    {}, {}, {}, {}, {}, {},
    {}, {}, {}, {}, {}, {},
    {}, {}, {}, {}, {}, {},
    {}, {}, {}, {}, {}, {},
    {}, {}, {}, {}, {}, {},
    {}, {}, {}, {}, {}, {},
    {}, {}, {}, {}, {}, {},
    {}, {}, {}, {}, {}, {},
    {}, {}, {}, {}, {}, {},
    {}, {}, {}, {}, {}, {},
    {}, {}, {}, {}, {}, {},
    {}, {}, {}, {}, {}, {},
    {}, {}, {}, {}, {}, {},
    {}, {}, {}, {}, {}, {},
    {}, {}, {}, {}, {}, {},
    {}, {}, {}, {}, {}, {},
    {}, {}, {}, {}, {}, {},
    {}, {}, {}, {}, {}, {},
    {}, {}, {}, {}, {}, {},
    {}, {}, {}, {}, {}, {},
    {}, {}, {}, {}, {}, {},
    {}, {}, {}, {}, {}, {},
    {}, {}, {}, {}, {}, {},
    {}, {}, {}, {}, {}, {},
    {}, {}, {}, {}, {}, {},
    {}, {}, {}, {}, {}, {},
    {}, {}, {}, {}, {}, {},
    {}, {}, {}, {}, {}, {},
    {}, {}, {}, {}, {}, {},
    {}, {}, {}, {}, {}, {},
    {}, {}, {}, {}, {}, {},
    {}, {}, {}, {}, {}, {},
    {}, {}, {}, {}, {}, {},
    {}, {}, {}, {}, {}, {},
    {}, {}, {}, {}, {}, {},
    {}, {}, {}, {}, {}, {},
    {}, {}, {}, {}, {}, {},
    {}, {}, {}, {}, {}, {},
    {}, {}, {}, {}, {}, {},
    {}, {}, {}, {}, {}, {},
    {}, {}, {}, {}, {}, {},
    {}, {}, {}, {}, {}, {},
    {}, {}, {}, {}, {}, {},
    {}, {}, {}, {}, {}, {},
    {}, {}, {}, {}, {}, {},
    {}, {}, {}, {}, {}, {},
    {}, {}, {}, {}, {}, {},
    {}, {}, {}, {}, {}, {},
    {}, {}, {}, {}, {}, {},
    {}, {}, {}, {}, {}, {},
    {}, {}, {}, {}, {}, {},
    {}, {}, {}, {}, {}, {},
    {}, {}, {}, {}, {}, {},
    {}, {}, {}, {}, {}, {},
    {}, {}, {}, {}, {}, {},
    {}, {}, {}, {}, {}, {},
    {}, {}, {}, {}, {}, {},
    {}, {}, {}, {}, {}, {},
    {}, {}, {}, {}, {}, {},
    {}, {}, {}, {}, {}, {},
    {}, {}, {}, {}, {}, {},
    {}, {}, {}, {}, {}, {},
    {}, {}, {}, {}, {}, {},
    {}, {}, {}, {}, {}, {},
    {}, {}, {}, {}, {}, {},
    {}, {}, {}, {}, {}, {},
    {}, {}, {}, {}, {}, {},
    {}, {}, {}, {}, {}, {},
    {}, {}, {}, {}, {}, {},
    {}, {}, {}, {}, {}, {},
    {}, {}, {}, {}, {}, {},
    {}, {}, {}, {}, {}, {},
    {}, {}, {}, {}, {}, {},
    {}, {}, {}, {}, {}, {},
    {}, {}, {}, {}, {}, {},
    {}, {}, {}, {}, {}, {},
    {}, {}, {}, {}, {}, {},
    {}, {}, {}, {}, {}, {},
    {}, {}, {}, {}, {}, {},
    {}, {}, {}, {}, {}, {},
    {}, {}, {}, {}, {}, {},
    {}, {}, {}, {}, {}, {},
    {}, {}, {}, {}, {}, {},
    {}, {}, {}, {}, {}, {},
    {}, {}, {}, {}, {}, {},
    {}, {}, {}, {}, {}, {},
    {}, {}, {}, {}, {}, {},
    {}, {}, {}, {}, {}, {},
    {}, {}, {}, {}, {}, {},
    {}, {}, {}, {}, {}, {},
    {}, {}, {}, {}, {}, {},
    {}, {}, {}, {}, {}, {},
    {}, {}, {}, {}, {}, {},
    {}, {}, {}, {}, {}, {},
    {}, {}, {}, {}, {}, {},
    {}, {}, {}, {}, {}, {},
    {}, {}, {}, {}, {}, {},
    {}, {}, {}, {}, {}, {},
    {}, {}, {}, {}, {}, {},
    {}, {}, {}, {}, {}, {},
    {}, {}, {}, {}, {}, {},
    {}, {}, {}, {}, {}, {},
    {}, {}, {}, {}, {}, {},
    {}, {}, {}, {}, {}, {},
    {}, {}, {}, {}, {}, {}
]);
